(set-option :produce-models true)
(set-logic QF_LRA)
(set-info :notes | Strip-packing problem.|)
(declare-fun x0 () Real)
(declare-fun y0 () Real)
(declare-fun x1 () Real)
(declare-fun y1 () Real)
(declare-fun x2 () Real)
(declare-fun y2 () Real)
(declare-fun x3 () Real)
(declare-fun y3 () Real)
(declare-fun x4 () Real)
(declare-fun y4 () Real)
(declare-fun x5 () Real)
(declare-fun y5 () Real)
(declare-fun x6 () Real)
(declare-fun y6 () Real)
(declare-fun x7 () Real)
(declare-fun y7 () Real)
(declare-fun x8 () Real)
(declare-fun y8 () Real)
(declare-fun z () Real)
(declare-fun c () Real)
(assert (and (= c z) (and (>= x0 0) 
(and (>= y0 0) 
(and (>= x1 0) 
(and (>= y1 0) 
(and (>= x2 0) 
(and (>= y2 0) 
(and (>= x3 0) 
(and (>= y3 0) 
(and (>= x4 0) 
(and (>= y4 0) 
(and (>= x5 0) 
(and (>= y5 0) 
(and (>= x6 0) 
(and (>= y6 0) 
(and (>= x7 0) 
(and (>= y7 0) 
(and (>= x8 0) 
(and (>= y8 0) 
(and (>= z 0) 
(and (>= c 0) 
(and (<= (+ x0 0.1281627522) z) 
(and (<= 0.8953906893 y0) 
(and (<= y0 1.0) 
(and (<= x0 (- 2.8592110072 0.1281627522)) 
(and (>= x0 0) 
(and (<= (+ x1 0.4192428351) z) 
(and (<= 0.794276001 y1) 
(and (<= y1 1.0) 
(and (<= x1 (- 2.8592110072 0.4192428351)) 
(and (>= x1 0) 
(and (<= (+ x2 0.6465544481) z) 
(and (<= 0.7120805993 y2) 
(and (<= y2 1.0) 
(and (<= x2 (- 2.8592110072 0.6465544481)) 
(and (>= x2 0) 
(and (<= (+ x3 0.1961053266) z) 
(and (<= 0.5809693986 y3) 
(and (<= y3 1.0) 
(and (<= x3 (- 2.8592110072 0.1961053266)) 
(and (>= x3 0) 
(and (<= (+ x4 0.9587935344) z) 
(and (<= 0.5506003841 y4) 
(and (<= y4 1.0) 
(and (<= x4 (- 2.8592110072 0.9587935344)) 
(and (>= x4 0) 
(and (<= (+ x5 0.5103521108) z) 
(and (<= 0.5300395209 y5) 
(and (<= y5 1.0) 
(and (<= x5 (- 2.8592110072 0.5103521108)) 
(and (>= x5 0) 
(and (<= (+ x6 0.9265590276) z) 
(and (<= 0.4464688103 y6) 
(and (<= y6 1.0) 
(and (<= x6 (- 2.8592110072 0.9265590276)) 
(and (>= x6 0) 
(and (<= (+ x7 0.3580306323) z) 
(and (<= 0.053514561 y7) 
(and (<= y7 1.0) 
(and (<= x7 (- 2.8592110072 0.3580306323)) 
(and (>= x7 0) 
(and (<= (+ x8 0.1230755503) z) 
(and (<= 0.0332690518 y8) 
(and (<= y8 1.0) 
(and (<= x8 (- 2.8592110072 0.1230755503)) 
(and (>= x8 0) 
(and (<= c 2.8592110072) 
(and (or (<= (+ x0 0.1281627522) x1) (or (<= (+ x1 0.4192428351) x0) (or (>= (- y0 0.8953906893) y1) (or (>= (- y1 0.794276001) y0))))) 
(and (or (<= (+ x0 0.1281627522) x2) (or (<= (+ x2 0.6465544481) x0) (or (>= (- y0 0.8953906893) y2) (or (>= (- y2 0.7120805993) y0))))) 
(and (or (<= (+ x0 0.1281627522) x3) (or (<= (+ x3 0.1961053266) x0) (or (>= (- y0 0.8953906893) y3) (or (>= (- y3 0.5809693986) y0))))) 
(and (or (<= (+ x0 0.1281627522) x4) (or (<= (+ x4 0.9587935344) x0) (or (>= (- y0 0.8953906893) y4) (or (>= (- y4 0.5506003841) y0))))) 
(and (or (<= (+ x0 0.1281627522) x5) (or (<= (+ x5 0.5103521108) x0) (or (>= (- y0 0.8953906893) y5) (or (>= (- y5 0.5300395209) y0))))) 
(and (or (<= (+ x0 0.1281627522) x6) (or (<= (+ x6 0.9265590276) x0) (or (>= (- y0 0.8953906893) y6) (or (>= (- y6 0.4464688103) y0))))) 
(and (or (<= (+ x0 0.1281627522) x7) (or (<= (+ x7 0.3580306323) x0) (or (>= (- y0 0.8953906893) y7) (or (>= (- y7 0.053514561) y0))))) 
(and (or (<= (+ x0 0.1281627522) x8) (or (<= (+ x8 0.1230755503) x0) (or (>= (- y0 0.8953906893) y8) (or (>= (- y8 0.0332690518) y0))))) 
(and (or (<= (+ x1 0.4192428351) x2) (or (<= (+ x2 0.6465544481) x1) (or (>= (- y1 0.794276001) y2) (or (>= (- y2 0.7120805993) y1))))) 
(and (or (<= (+ x1 0.4192428351) x3) (or (<= (+ x3 0.1961053266) x1) (or (>= (- y1 0.794276001) y3) (or (>= (- y3 0.5809693986) y1))))) 
(and (or (<= (+ x1 0.4192428351) x4) (or (<= (+ x4 0.9587935344) x1) (or (>= (- y1 0.794276001) y4) (or (>= (- y4 0.5506003841) y1))))) 
(and (or (<= (+ x1 0.4192428351) x5) (or (<= (+ x5 0.5103521108) x1) (or (>= (- y1 0.794276001) y5) (or (>= (- y5 0.5300395209) y1))))) 
(and (or (<= (+ x1 0.4192428351) x6) (or (<= (+ x6 0.9265590276) x1) (or (>= (- y1 0.794276001) y6) (or (>= (- y6 0.4464688103) y1))))) 
(and (or (<= (+ x1 0.4192428351) x7) (or (<= (+ x7 0.3580306323) x1) (or (>= (- y1 0.794276001) y7) (or (>= (- y7 0.053514561) y1))))) 
(and (or (<= (+ x1 0.4192428351) x8) (or (<= (+ x8 0.1230755503) x1) (or (>= (- y1 0.794276001) y8) (or (>= (- y8 0.0332690518) y1))))) 
(and (or (<= (+ x2 0.6465544481) x3) (or (<= (+ x3 0.1961053266) x2) (or (>= (- y2 0.7120805993) y3) (or (>= (- y3 0.5809693986) y2))))) 
(and (or (<= (+ x2 0.6465544481) x4) (or (<= (+ x4 0.9587935344) x2) (or (>= (- y2 0.7120805993) y4) (or (>= (- y4 0.5506003841) y2))))) 
(and (or (<= (+ x2 0.6465544481) x5) (or (<= (+ x5 0.5103521108) x2) (or (>= (- y2 0.7120805993) y5) (or (>= (- y5 0.5300395209) y2))))) 
(and (or (<= (+ x2 0.6465544481) x6) (or (<= (+ x6 0.9265590276) x2) (or (>= (- y2 0.7120805993) y6) (or (>= (- y6 0.4464688103) y2))))) 
(and (or (<= (+ x2 0.6465544481) x7) (or (<= (+ x7 0.3580306323) x2) (or (>= (- y2 0.7120805993) y7) (or (>= (- y7 0.053514561) y2))))) 
(and (or (<= (+ x2 0.6465544481) x8) (or (<= (+ x8 0.1230755503) x2) (or (>= (- y2 0.7120805993) y8) (or (>= (- y8 0.0332690518) y2))))) 
(and (or (<= (+ x3 0.1961053266) x4) (or (<= (+ x4 0.9587935344) x3) (or (>= (- y3 0.5809693986) y4) (or (>= (- y4 0.5506003841) y3))))) 
(and (or (<= (+ x3 0.1961053266) x5) (or (<= (+ x5 0.5103521108) x3) (or (>= (- y3 0.5809693986) y5) (or (>= (- y5 0.5300395209) y3))))) 
(and (or (<= (+ x3 0.1961053266) x6) (or (<= (+ x6 0.9265590276) x3) (or (>= (- y3 0.5809693986) y6) (or (>= (- y6 0.4464688103) y3))))) 
(and (or (<= (+ x3 0.1961053266) x7) (or (<= (+ x7 0.3580306323) x3) (or (>= (- y3 0.5809693986) y7) (or (>= (- y7 0.053514561) y3))))) 
(and (or (<= (+ x3 0.1961053266) x8) (or (<= (+ x8 0.1230755503) x3) (or (>= (- y3 0.5809693986) y8) (or (>= (- y8 0.0332690518) y3))))) 
(and (or (<= (+ x4 0.9587935344) x5) (or (<= (+ x5 0.5103521108) x4) (or (>= (- y4 0.5506003841) y5) (or (>= (- y5 0.5300395209) y4))))) 
(and (or (<= (+ x4 0.9587935344) x6) (or (<= (+ x6 0.9265590276) x4) (or (>= (- y4 0.5506003841) y6) (or (>= (- y6 0.4464688103) y4))))) 
(and (or (<= (+ x4 0.9587935344) x7) (or (<= (+ x7 0.3580306323) x4) (or (>= (- y4 0.5506003841) y7) (or (>= (- y7 0.053514561) y4))))) 
(and (or (<= (+ x4 0.9587935344) x8) (or (<= (+ x8 0.1230755503) x4) (or (>= (- y4 0.5506003841) y8) (or (>= (- y8 0.0332690518) y4))))) 
(and (or (<= (+ x5 0.5103521108) x6) (or (<= (+ x6 0.9265590276) x5) (or (>= (- y5 0.5300395209) y6) (or (>= (- y6 0.4464688103) y5))))) 
(and (or (<= (+ x5 0.5103521108) x7) (or (<= (+ x7 0.3580306323) x5) (or (>= (- y5 0.5300395209) y7) (or (>= (- y7 0.053514561) y5))))) 
(and (or (<= (+ x5 0.5103521108) x8) (or (<= (+ x8 0.1230755503) x5) (or (>= (- y5 0.5300395209) y8) (or (>= (- y8 0.0332690518) y5))))) 
(and (or (<= (+ x6 0.9265590276) x7) (or (<= (+ x7 0.3580306323) x6) (or (>= (- y6 0.4464688103) y7) (or (>= (- y7 0.053514561) y6))))) 
(and (or (<= (+ x6 0.9265590276) x8) (or (<= (+ x8 0.1230755503) x6) (or (>= (- y6 0.4464688103) y8) (or (>= (- y8 0.0332690518) y6))))) 
(and (or (<= (+ x7 0.3580306323) x8) (or (<= (+ x8 0.1230755503) x7) (or (>= (- y7 0.053514561) y8) (or (>= (- y8 0.0332690518) y7))))) ))))))))))))))))))))))))))))))))))))))))))))))))))))))))))))))))))))))))))))))))))))))))))))))))))))))))
(minimize c)
(check-sat)
(get-objectives)
(exit)
